branch-and-cut/resultados/B/b02.sol
# Objective value = 83
e[1,14] 0
e[14,1] 0
e[3,11] 0
e[11,3] 0
e[3,20] 0
e[20,3] 0
e[4,47] 0
e[47,4] 0
e[6,34] 1
e[34,6] 1
e[6,38] 1
e[38,6] 1
e[8,26] 1
e[26,8] 1
e[9,17] 0
e[17,9] 0
e[9,39] 0
e[39,9] 0
e[11,0] 0
e[0,11] 0
e[11,28] 0
e[28,11] 0
e[12,14] 0
e[14,12] 0
e[13,1] 0
e[1,13] 0
e[15,2] 0
e[2,15] 0
e[16,29] 0
e[29,16] 0
e[18,9] 0
e[9,18] 0
e[18,15] 0
e[15,18] 0
e[18,35] 1
e[35,18] 1
e[20,18] 0
e[18,20] 0
e[20,24] 0
e[24,20] 0
e[23,7] 0
e[7,23] 0
e[23,21] 0
e[21,23] 0
e[24,15] 0
e[15,24] 0
e[24,46] 1
e[46,24] 1
e[25,16] 0
e[16,25] 0
e[25,30] 0
e[30,25] 0
e[25,33] 0
e[33,25] 0
e[25,48] 1
e[48,25] 1
e[26,13] 0
e[13,26] 0
e[26,28] 1
e[28,26] 1
e[26,34] 1
e[34,26] 1
e[26,49] 0
e[49,26] 0
e[27,42] 1
e[42,27] 1
e[28,4] 0
e[4,28] 0
e[28,5] 1
e[5,28] 1
e[33,8] 0
e[8,33] 0
e[33,37] 0
e[37,33] 0
e[34,40] 1
e[40,34] 1
e[35,19] 1
e[19,35] 1
e[36,39] 1
e[39,36] 1
e[39,27] 1
e[27,39] 1
e[39,30] 0
e[30,39] 0
e[41,12] 0
e[12,41] 0
e[42,26] 1
e[26,42] 1
e[42,31] 0
e[31,42] 0
e[42,32] 0
e[32,42] 0
e[42,43] 1
e[43,42] 1
e[43,10] 1
e[10,43] 1
e[43,17] 0
e[17,43] 0
e[44,3] 0
e[3,44] 0
e[44,6] 0
e[6,44] 0
e[44,16] 0
e[16,44] 0
e[44,19] 1
e[19,44] 1
e[44,21] 0
e[21,44] 0
e[44,25] 1
e[25,44] 1
e[44,36] 1
e[36,44] 1
e[46,27] 0
e[27,46] 0
e[46,44] 1
e[44,46] 1
e[48,22] 1
e[22,48] 1
e[48,23] 0
e[23,48] 0
e[48,41] 0
e[41,48] 0
e[48,45] 0
e[45,48] 0
e[49,5] 0
e[5,49] 0
